(set-logic ALL)
(declare-const n_VAR Int)
(assert (< 0 (str.len (ite (< n_VAR 0) (str.++ "-" (int.to.str (- n_VAR))) (int.to.str n_VAR)))))
(assert (> (str.len (ite (< n_VAR 0) (str.++ "-" (int.to.str (- n_VAR))) (int.to.str n_VAR))) 0))
(assert (< 1 (str.len (ite (< n_VAR 0) (str.++ "-" (int.to.str (- n_VAR))) (int.to.str n_VAR)))))
(assert (> (str.len (ite (< n_VAR 0) (str.++ "-" (int.to.str (- n_VAR))) (int.to.str n_VAR))) 1))
(assert (< 2 (str.len (ite (< n_VAR 0) (str.++ "-" (int.to.str (- n_VAR))) (int.to.str n_VAR)))))
(assert (> (str.len (ite (< n_VAR 0) (str.++ "-" (int.to.str (- n_VAR))) (int.to.str n_VAR))) 2))
(assert (not (< 3 (str.len (ite (< n_VAR 0) (str.++ "-" (int.to.str (- n_VAR))) (int.to.str n_VAR))))))
(assert (str.in.re (str.at (ite (< n_VAR 0) (str.++ "-" (int.to.str (- n_VAR))) (int.to.str n_VAR)) 1) (re.+ (re.union (re.union (re.range "A" "Z") (re.range "a" "z")) (re.range "0" "9")))))
(assert (str.in.re (str.at (ite (< n_VAR 0) (str.++ "-" (int.to.str (- n_VAR))) (int.to.str n_VAR)) 0) (re.+ (re.union (re.union (re.range "A" "Z") (re.range "a" "z")) (re.range "0" "9")))))
(assert (str.< (str.at (ite (< n_VAR 0) (str.++ "-" (int.to.str (- n_VAR))) (int.to.str n_VAR)) 1) (str.at (ite (< n_VAR 0) (str.++ "-" (int.to.str (- n_VAR))) (int.to.str n_VAR)) 0)))
(assert (str.in.re (str.at (ite (< n_VAR 0) (str.++ "-" (int.to.str (- n_VAR))) (int.to.str n_VAR)) 2) (re.+ (re.union (re.union (re.range "A" "Z") (re.range "a" "z")) (re.range "0" "9")))))
(assert (str.in.re (str.at (ite (< n_VAR 0) (str.++ "-" (int.to.str (- n_VAR))) (int.to.str n_VAR)) 1) (re.+ (re.union (re.union (re.range "A" "Z") (re.range "a" "z")) (re.range "0" "9")))))
(assert (not (str.< (str.at (ite (< n_VAR 0) (str.++ "-" (int.to.str (- n_VAR))) (int.to.str n_VAR)) 2) (str.at (ite (< n_VAR 0) (str.++ "-" (int.to.str (- n_VAR))) (int.to.str n_VAR)) 1))))
(assert (str.in.re (str.at (ite (< n_VAR 0) (str.++ "-" (int.to.str (- n_VAR))) (int.to.str n_VAR)) 2) (re.+ (re.union (re.union (re.range "A" "Z") (re.range "a" "z")) (re.range "0" "9")))))
(assert (str.in.re (str.at (ite (< n_VAR 0) (str.++ "-" (int.to.str (- n_VAR))) (int.to.str n_VAR)) 0) (re.+ (re.union (re.union (re.range "A" "Z") (re.range "a" "z")) (re.range "0" "9")))))
(assert (str.< (str.at (ite (< n_VAR 0) (str.++ "-" (int.to.str (- n_VAR))) (int.to.str n_VAR)) 2) (str.at (ite (< n_VAR 0) (str.++ "-" (int.to.str (- n_VAR))) (int.to.str n_VAR)) 0)))
(assert (str.in.re (str.at (ite (< n_VAR 0) (str.++ "-" (int.to.str (- n_VAR))) (int.to.str n_VAR)) 2) (re.+ (re.union (re.union (re.range "A" "Z") (re.range "a" "z")) (re.range "0" "9")))))
(assert (str.in.re (str.at (ite (< n_VAR 0) (str.++ "-" (int.to.str (- n_VAR))) (int.to.str n_VAR)) 1) (re.+ (re.union (re.union (re.range "A" "Z") (re.range "a" "z")) (re.range "0" "9")))))
(assert (not (str.< (str.at (ite (< n_VAR 0) (str.++ "-" (int.to.str (- n_VAR))) (int.to.str n_VAR)) 2) (str.at (ite (< n_VAR 0) (str.++ "-" (int.to.str (- n_VAR))) (int.to.str n_VAR)) 1))))
(assert (not (= "001" (ite (< n_VAR 0) (str.++ "-" (int.to.str (- n_VAR))) (int.to.str n_VAR)))))
(assert (< 0 (str.len (ite (< n_VAR 0) (str.++ "-" (int.to.str (- n_VAR))) (int.to.str n_VAR)))))
(assert (> (str.len (ite (< n_VAR 0) (str.++ "-" (int.to.str (- n_VAR))) (int.to.str n_VAR))) 0))
(assert (< 1 (str.len (ite (< n_VAR 0) (str.++ "-" (int.to.str (- n_VAR))) (int.to.str n_VAR)))))
(assert (> (str.len (ite (< n_VAR 0) (str.++ "-" (int.to.str (- n_VAR))) (int.to.str n_VAR))) 1))
(assert (< 2 (str.len (ite (< n_VAR 0) (str.++ "-" (int.to.str (- n_VAR))) (int.to.str n_VAR)))))
(assert (> (str.len (ite (< n_VAR 0) (str.++ "-" (int.to.str (- n_VAR))) (int.to.str n_VAR))) 2))
(assert (not (< 3 (str.len (ite (< n_VAR 0) (str.++ "-" (int.to.str (- n_VAR))) (int.to.str n_VAR))))))
(assert (str.in.re (str.at (ite (< n_VAR 0) (str.++ "-" (int.to.str (- n_VAR))) (int.to.str n_VAR)) 1) (re.+ (re.union (re.union (re.range "A" "Z") (re.range "a" "z")) (re.range "0" "9")))))
(assert (str.in.re (str.at (ite (< n_VAR 0) (str.++ "-" (int.to.str (- n_VAR))) (int.to.str n_VAR)) 0) (re.+ (re.union (re.union (re.range "A" "Z") (re.range "a" "z")) (re.range "0" "9")))))
(assert (str.< (str.at (ite (< n_VAR 0) (str.++ "-" (int.to.str (- n_VAR))) (int.to.str n_VAR)) 1) (str.at (ite (< n_VAR 0) (str.++ "-" (int.to.str (- n_VAR))) (int.to.str n_VAR)) 0)))
(assert (str.in.re (str.at (ite (< n_VAR 0) (str.++ "-" (int.to.str (- n_VAR))) (int.to.str n_VAR)) 2) (re.+ (re.union (re.union (re.range "A" "Z") (re.range "a" "z")) (re.range "0" "9")))))
(assert (str.in.re (str.at (ite (< n_VAR 0) (str.++ "-" (int.to.str (- n_VAR))) (int.to.str n_VAR)) 1) (re.+ (re.union (re.union (re.range "A" "Z") (re.range "a" "z")) (re.range "0" "9")))))
(assert (not (str.< (str.at (ite (< n_VAR 0) (str.++ "-" (int.to.str (- n_VAR))) (int.to.str n_VAR)) 2) (str.at (ite (< n_VAR 0) (str.++ "-" (int.to.str (- n_VAR))) (int.to.str n_VAR)) 1))))
(assert (str.in.re (str.at (ite (< n_VAR 0) (str.++ "-" (int.to.str (- n_VAR))) (int.to.str n_VAR)) 2) (re.+ (re.union (re.union (re.range "A" "Z") (re.range "a" "z")) (re.range "0" "9")))))
(assert (str.in.re (str.at (ite (< n_VAR 0) (str.++ "-" (int.to.str (- n_VAR))) (int.to.str n_VAR)) 0) (re.+ (re.union (re.union (re.range "A" "Z") (re.range "a" "z")) (re.range "0" "9")))))
(assert (str.< (str.at (ite (< n_VAR 0) (str.++ "-" (int.to.str (- n_VAR))) (int.to.str n_VAR)) 2) (str.at (ite (< n_VAR 0) (str.++ "-" (int.to.str (- n_VAR))) (int.to.str n_VAR)) 0)))
(assert (str.in.re (str.at (ite (< n_VAR 0) (str.++ "-" (int.to.str (- n_VAR))) (int.to.str n_VAR)) 2) (re.+ (re.union (re.union (re.range "A" "Z") (re.range "a" "z")) (re.range "0" "9")))))
(assert (str.in.re (str.at (ite (< n_VAR 0) (str.++ "-" (int.to.str (- n_VAR))) (int.to.str n_VAR)) 1) (re.+ (re.union (re.union (re.range "A" "Z") (re.range "a" "z")) (re.range "0" "9")))))
(assert (str.< (str.at (ite (< n_VAR 0) (str.++ "-" (int.to.str (- n_VAR))) (int.to.str n_VAR)) 2) (str.at (ite (< n_VAR 0) (str.++ "-" (int.to.str (- n_VAR))) (int.to.str n_VAR)) 1)))
(check-sat)
(get-value (n_VAR))
